61
100
80	15
79	18
78	10
77	13
76	15
75	6
74	7
73	12
72	15
71	10
70	10
69	11
68	13
67	12
66	16
65	16
64	7
63	7
62	15
61	9
60	5
59	15
58	11
57	15
56	16
55	13
54	12
53	11
52	13
51	13
50	18
49	19
48	13
47	12
46	10
45	13
44	16
43	10
42	11
41	14
40	10
39	13
38	12
37	8
36	16
35	9
34	14
33	13
32	7
31	16
30	13
29	10
28	16
27	10
26	13
25	12
24	15
23	11
22	12
21	11
20	12
